167
0 62 152 7 105 48 125 133 97 137 
47 145 92 153 27 4 121 100 98 15 
35 142 2 128 59 32 141 43 24 30 
160 78 99 109 61 3 117 91 107 122 
44 49 148 20 29 149 18 64 5 68 
129 123 46 50 143 88 156 164 96 54 
66 14 72 86 81 83 102 87 13 108 
10 116 154 16 8 158 31 12 40 22 
45 112 147 111 113 34 85 53 33 139 
124 73 82 75 38 26 93 89 146 57 
25 77 161 90 163 135 132 106 65 131 
39 55 120 110 52 23 51 94 103 80 
155 118 144 95 138 19 150 84 56 70 
79 127 60 58 136 166 1 21 42 114 
157 63 151 41 6 67 119 36 37 28 
71 11 162 165 115 9 159 74 130 69 
76 126 140 17 104 134 101 
